num_tasks=7;
num_machines=3;
comp_cost=[|0, 0, 0, 
|77, 59, 95,
|149, 62, 140,
|64, 91, 147,
|103, 122, 139,
|67, 90, 53,
|0, 0, 0|];
comm_cost=[|0,0,0,0,0,0,0,
|0,0,106,63,0,0,0,
|0,106,0,0,141,0,0,
|0,63,0,0,116,0,0,
|0,0,141,116,0,99,0,
|0,0,0,0,99,0,0,
|0,0,0,0,0,0,0|];
max_time=5000;
